24
2 51 35 
2 16 56 
2 22 28 
3 45 15 58 
3 12 41 46 
2 33 11 
2 2 53 
2 6 19 
3 27 59 4 
3 13 20 21 
3 3 40 31 
3 5 52 57 
3 42 24 8 
2 37 7 
3 34 10 44 
3 60 14 29 
2 26 47 
3 48 18 32 
3 38 1 25 
3 43 36 9 
3 55 17 23 
2 54 39 
2 50 49 
1 30 
